
Gurobi 9.1.2 (linux64) logging started Wed Oct 13 03:00:26 2021

Changed value of parameter LogFile to /home/zongzan/dist_dnn_training/MixedMemoryOpt/data/budget_sweep/p32xlarge_VGG16_256_None/ilp_log/ilp_mixed_28893139648.log
   Prev:   Default: 
Changed value of parameter Threads to 32
   Prev: 0  Min: 0  Max: 1024  Default: 0
Changed value of parameter TimeLimit to 3600.0
   Prev: inf  Min: 0.0  Max: inf  Default: inf
Changed value of parameter OptimalityTol to 0.0001
   Prev: 1e-06  Min: 1e-09  Max: 0.01  Default: 1e-06
Parameter IntFeasTol unchanged
   Value: 1e-05  Min: 1e-09  Max: 0.1  Default: 1e-05
Changed value of parameter Presolve to 2
   Prev: -1  Min: -1  Max: 2  Default: -1
Changed value of parameter StartNodeLimit to 10000000
   Prev: -1  Min: -3  Max: 2000000000  Default: -1
Changed value of parameter TimeLimit to 300.0
   Prev: 3600.0  Min: 0.0  Max: inf  Default: inf
Gurobi Optimizer version 9.1.2 build v9.1.2rc0 (linux64)
Thread count: 28 physical cores, 56 logical processors, using up to 32 threads
Optimize a model with 61102 rows, 14040 columns and 576953 nonzeros
Model fingerprint: 0xe6f1d3a4
Variable types: 2025 continuous, 12015 integer (12015 binary)
Coefficient statistics:
  Matrix range     [1e+00, 5e+07]
  Objective range  [4e+00, 2e+02]
  Bounds range     [1e+00, 5e+08]
  RHS range        [1e+00, 5e+08]
Presolve removed 54203 rows and 9148 columns
Presolve time: 2.10s
Presolved: 6899 rows, 4892 columns, 38046 nonzeros
Variable types: 0 continuous, 4892 integer (3909 binary)
Found heuristic solution: objective 17500.536861
Found heuristic solution: objective 8187.5630000
Found heuristic solution: objective 3706.9824536
Presolve removed 96 rows and 82 columns
Presolved: 6803 rows, 4810 columns, 37665 nonzeros


Root relaxation: objective 3.098828e+03, 2618 iterations, 0.20 seconds

    Nodes    |    Current Node    |     Objective Bounds      |     Work
 Expl Unexpl |  Obj  Depth IntInf | Incumbent    BestBd   Gap | It/Node Time

H    0     0                    3098.8276075 3098.82761  0.00%     -    2s
     0     0 3098.82761    0   18 3098.82761 3098.82761  0.00%     -    2s

Explored 0 nodes (6735 simplex iterations) in 2.70 seconds
Thread count was 32 (of 56 available processors)

Solution count 4: 3098.83 3706.98 8187.56 17500.5 

Optimal solution found (tolerance 1.00e-04)
Best objective 3.098827607475e+03, best bound 3.098827607475e+03, gap 0.0000%
Changed value of parameter TimeLimit to 3600.0
   Prev: 300.0  Min: 0.0  Max: inf  Default: inf


Restarting solve


Gurobi Optimizer version 9.1.2 build v9.1.2rc0 (linux64)
Thread count: 28 physical cores, 56 logical processors, using up to 32 threads
Optimize a model with 59836 rows, 14040 columns and 575687 nonzeros
Model fingerprint: 0xe61c22ff
Variable types: 2025 continuous, 12015 integer (12015 binary)
Coefficient statistics:
  Matrix range     [1e+00, 5e+07]
  Objective range  [4e+00, 2e+02]
  Bounds range     [1e+00, 5e+08]
  RHS range        [1e+00, 5e+08]

MIP start from previous solve produced solution with objective 3098.83 (0.11s)
Loaded MIP start from previous solve with objective 3098.83

Presolve removed 58595 rows and 12564 columns
Presolve time: 2.81s
Presolved: 1241 rows, 1476 columns, 15524 nonzeros
Variable types: 0 continuous, 1476 integer (1475 binary)

Explored 0 nodes (0 simplex iterations) in 2.94 seconds
Thread count was 32 (of 56 available processors)

Solution count 1: 3098.83 

Optimal solution found (tolerance 1.00e-04)
Best objective 3.098827607475e+03, best bound 3.098827607475e+03, gap 0.0000%
